
Gurobi 7.0.2 (linux64, Matlab) logging started Sun Sep  2 08:56:59 2018


Gurobi 7.0.2 (linux64) logging started Sun Sep  2 08:56:59 2018

Optimize a model with 1815 rows, 4420 columns and 70035 nonzeros
Coefficient statistics:
  Matrix range     [1e-06, 2e+03]
  Objective range  [1e-06, 3e+00]
  Bounds range     [1e-03, 1e+07]
  RHS range        [4e-04, 6e+03]
Iteration    Objective       Primal Inf.    Dual Inf.      Time
       0    3.0171157e+02   0.000000e+00   0.000000e+00      0s

Solved in 0 iterations and 0.04 seconds
Optimal objective  3.017115651e+02
